sat
(
  (define-fun StorageProv15 () Int
    19499)
  (define-fun MemProv12 () Int
    6750)
  (define-fun VM6Type () Int
    10)
  (define-fun C4_VM14 () Int
    0)
  (define-fun VM12Type () Int
    0)
  (define-fun C1_VM15 () Int
    0)
  (define-fun StorageProv1 () Int
    42000)
  (define-fun C2_VM8 () Int
    0)
  (define-fun PriceProv9 () Int
    0)
  (define-fun ProcProv14 () Int
    3599)
  (define-fun C1_VM10 () Int
    0)
  (define-fun C3_VM14 () Int
    0)
  (define-fun StorageProv11 () Int
    141000)
  (define-fun C5_VM1 () Int
    0)
  (define-fun C3_VM8 () Int
    1)
  (define-fun MemProv2 () Int
    1350)
  (define-fun PriceProv2 () Int
    120)
  (define-fun C1_VM4 () Int
    1)
  (define-fun C3_VM3 () Int
    0)
  (define-fun StorageProv9 () Int
    141000)
  (define-fun MemProv7 () Int
    6750)
  (define-fun C2_VM13 () Int
    0)
  (define-fun C2_VM4 () Int
    1)
  (define-fun C5_VM9 () Int
    0)
  (define-fun C3_VM7 () Int
    0)
  (define-fun C5_VM6 () Int
    1)
  (define-fun C2_VM11 () Int
    0)
  (define-fun PriceProv4 () Int
    120)
  (define-fun VM9Type () Int
    0)
  (define-fun VM8Type () Int
    7)
  (define-fun StorageProv10 () Int
    141000)
  (define-fun C1_VM7 () Int
    1)
  (define-fun PriceProv10 () Int
    0)
  (define-fun StorageProv2 () Int
    42000)
  (define-fun C4_VM3 () Int
    0)
  (define-fun C5_VM7 () Int
    1)
  (define-fun PriceProv15 () Int
    0)
  (define-fun C3_VM2 () Int
    0)
  (define-fun VM4Type () Int
    1)
  (define-fun C4_VM9 () Int
    0)
  (define-fun C4_VM8 () Int
    0)
  (define-fun C4_VM1 () Int
    0)
  (define-fun VM15Type () Int
    0)
  (define-fun C4_VM15 () Int
    0)
  (define-fun C4_VM5 () Int
    0)
  (define-fun C2_VM1 () Int
    1)
  (define-fun ProcProv7 () Int
    3600)
  (define-fun C4_VM6 () Int
    0)
  (define-fun MemProv11 () Int
    6750)
  (define-fun ProcProv3 () Int
    900)
  (define-fun StorageProv3 () Int
    42000)
  (define-fun StorageProv7 () Int
    141000)
  (define-fun MemProv5 () Int
    1350)
  (define-fun StorageProv8 () Int
    69000)
  (define-fun C4_VM13 () Int
    0)
  (define-fun MemProv4 () Int
    1350)
  (define-fun C1_VM14 () Int
    0)
  (define-fun C2_VM5 () Int
    1)
  (define-fun C3_VM4 () Int
    0)
  (define-fun PriceProv7 () Int
    480)
  (define-fun MemProv13 () Int
    6750)
  (define-fun VM7Type () Int
    10)
  (define-fun VM1Type () Int
    1)
  (define-fun StorageProv12 () Int
    141000)
  (define-fun VM10Type () Int
    0)
  (define-fun C1_VM13 () Int
    0)
  (define-fun C2_VM10 () Int
    0)
  (define-fun C3_VM1 () Int
    0)
  (define-fun C5_VM15 () Int
    0)
  (define-fun ProcProv11 () Int
    3600)
  (define-fun VM14Type () Int
    0)
  (define-fun PriceProv1 () Int
    120)
  (define-fun C4_VM4 () Int
    0)
  (define-fun VM11Type () Int
    0)
  (define-fun PriceProv14 () Int
    0)
  (define-fun C2_VM9 () Int
    0)
  (define-fun PriceProv12 () Int
    0)
  (define-fun StorageProv6 () Int
    141000)
  (define-fun PriceProv5 () Int
    120)
  (define-fun ProcProv15 () Int
    7201)
  (define-fun MemProv14 () Int
    6749)
  (define-fun C4_VM2 () Int
    0)
  (define-fun C5_VM3 () Int
    0)
  (define-fun C1_VM8 () Int
    0)
  (define-fun MemProv10 () Int
    6750)
  (define-fun StorageProv13 () Int
    141000)
  (define-fun MemProv8 () Int
    3150)
  (define-fun C2_VM7 () Int
    0)
  (define-fun C1_VM12 () Int
    0)
  (define-fun C1_VM6 () Int
    1)
  (define-fun C2_VM15 () Int
    0)
  (define-fun VM5Type () Int
    1)
  (define-fun MemProv6 () Int
    6750)
  (define-fun VM3Type () Int
    1)
  (define-fun C1_VM5 () Int
    1)
  (define-fun C1_VM1 () Int
    1)
  (define-fun C3_VM9 () Int
    0)
  (define-fun C5_VM13 () Int
    0)
  (define-fun MemProv9 () Int
    6750)
  (define-fun VM13Type () Int
    0)
  (define-fun C3_VM15 () Int
    0)
  (define-fun C5_VM11 () Int
    0)
  (define-fun C3_VM6 () Int
    0)
  (define-fun C5_VM2 () Int
    0)
  (define-fun ProcProv13 () Int
    3600)
  (define-fun StorageProv14 () Int
    86999)
  (define-fun PriceProv3 () Int
    120)
  (define-fun C5_VM10 () Int
    0)
  (define-fun PriceProv8 () Int
    240)
  (define-fun ProcProv8 () Int
    1800)
  (define-fun PriceProv11 () Int
    0)
  (define-fun C4_VM12 () Int
    0)
  (define-fun C2_VM2 () Int
    1)
  (define-fun C2_VM12 () Int
    0)
  (define-fun ProcProv9 () Int
    3600)
  (define-fun C5_VM5 () Int
    0)
  (define-fun MemProv15 () Int
    6751)
  (define-fun C5_VM8 () Int
    0)
  (define-fun C1_VM2 () Int
    1)
  (define-fun MemProv3 () Int
    1350)
  (define-fun C2_VM3 () Int
    1)
  (define-fun C1_VM3 () Int
    1)
  (define-fun PriceProv6 () Int
    480)
  (define-fun C5_VM4 () Int
    0)
  (define-fun ProcProv12 () Int
    3600)
  (define-fun C1_VM9 () Int
    0)
  (define-fun C3_VM11 () Int
    0)
  (define-fun C5_VM12 () Int
    0)
  (define-fun C5_VM14 () Int
    0)
  (define-fun ProcProv5 () Int
    900)
  (define-fun MemProv1 () Int
    1350)
  (define-fun C4_VM10 () Int
    0)
  (define-fun VM2Type () Int
    1)
  (define-fun C4_VM7 () Int
    0)
  (define-fun ProcProv4 () Int
    900)
  (define-fun C3_VM13 () Int
    0)
  (define-fun C3_VM10 () Int
    0)
  (define-fun C2_VM6 () Int
    0)
  (define-fun ProcProv1 () Int
    900)
  (define-fun PriceProv13 () Int
    0)
  (define-fun C4_VM11 () Int
    0)
  (define-fun ProcProv6 () Int
    3600)
  (define-fun ProcProv10 () Int
    3600)
  (define-fun StorageProv5 () Int
    42000)
  (define-fun C3_VM5 () Int
    0)
  (define-fun C3_VM12 () Int
    0)
  (define-fun C1_VM11 () Int
    0)
  (define-fun C2_VM14 () Int
    0)
  (define-fun ProcProv2 () Int
    900)
  (define-fun StorageProv4 () Int
    42000)
)
(objectives
 ( 25)
 ((+ 0
   PriceProv1
   PriceProv2
   PriceProv3
   PriceProv4
   PriceProv5
   PriceProv6
   PriceProv7
   PriceProv8
   PriceProv9
   PriceProv10
   PriceProv11
   PriceProv12
   PriceProv13
   PriceProv14
   PriceProv15) 1800)
)
(:added-eqs                   381838
 :arith-eq-adapter            40443
 :arith-bound-propagations-lp 204
 :arith-conflicts             28
 :arith-diseq                 199322
 :arith-fixed-eqs             9320
 :arith-lower                 347638
 :arith-make-feasible         38950
 :arith-max-columns           229
 :arith-max-rows              47
 :arith-upper                 142487
 :binary-propagations         1217161
 :conflicts                   4285
 :decisions                   115872
 :del-clause                  16264
 :final-checks                33
 :max-memory                  49.36
 :maxsat-cores                1
 :memory                      49.18
 :minimized-lits              20014
 :mk-bool-var                 81889
 :mk-clause                   20194
 :mk-clause-binary            7451
 :num-allocs                  216369720
 :num-checks                  57
 :pb-conflicts                2395
 :pb-predicates               757
 :pb-propagations             15582
 :pb-resolves                 1333
 :propagations                1528057
 :restarts                    28
 :rlimit-count                11153338
 :time                        0.52
 :total-time                  0.53)
